NAME : X-n655-k131
COMMENT : "Generated by Uchoa, Pecin, Pessoa, Poggi, Subramanian, and Vidal (2013)"
TYPE : CVRP
DIMENSION : 655
EDGE_WEIGHT_TYPE : EUC_2D
CAPACITY : 5
NODE_COORD_SECTION
1 500 500
2 346 793
3 692 966
4 171 666
5 287 795
6 133 668
7 704 959
8 400 795
9 195 897
10 845 931
11 829 724
12 300 860
13 218 829
14 116 780
15 237 631
16 126 681
17 825 922
18 315 913
19 271 769
20 530 917
21 156 900
22 265 808
23 171 742
24 388 776
25 153 664
26 393 855
27 320 751
28 594 862
29 213 810
30 723 924
31 192 877
32 661 910
33 153 729
34 334 812
35 558 944
36 502 783
37 266 747
38 23 753
39 180 584
40 702 854
41 354 649
42 412 709
43 721 928
44 168 674
45 364 640
46 375 727
47 247 977
48 332 853
49 664 929
50 646 901
51 248 723
52 116 628
53 123 690
54 247 539
55 715 966
56 314 712
57 237 747
58 202 679
59 409 946
60 684 879
61 142 576
62 204 636
63 440 817
64 697 882
65 772 977
66 177 889
67 341 787
68 391 725
69 82 764
70 734 834
71 352 732
72 646 553
73 102 631
74 354 612
75 374 865
76 421 812
77 335 835
78 646 931
79 560 910
80 702 965
81 273 790
82 329 750
83 300 586
84 850 855
85 235 683
86 393 953
87 389 923
88 341 851
89 781 946
90 329 862
91 472 873
92 356 895
93 194 733
94 53 777
95 133 596
96 606 971
97 273 812
98 223 812
99 156 820
100 317 650
101 177 790
102 389 747
103 663 944
104 336 940
105 284 739
106 737 977
107 249 956
108 433 852
109 294 856
110 285 879
111 280 818
112 175 885
113 295 747
114 669 902
115 763 969
116 138 632
117 193 593
118 220 818
119 145 800
120 739 960
121 72 672
122 752 940
123 639 894
124 329 726
125 799 987
126 118 343
127 660 917
128 382 741
129 242 626
130 164 824
131 350 881
132 509 886
133 190 416
134 72 656
135 353 659
136 132 677
137 364 771
138 893 900
139 140 645
140 411 757
141 397 805
142 171 644
143 488 625
144 260 816
145 764 980
146 149 657
147 769 855
148 716 925
149 191 843
150 566 966
151 620 908
152 358 727
153 268 705
154 406 927
155 139 943
156 192 762
157 549 931
158 177 664
159 433 707
160 301 753
161 361 840
162 120 764
163 178 664
164 109 751
165 318 529
166 419 952
167 309 737
168 289 787
169 350 812
170 88 794
171 151 658
172 185 883
173 411 467
174 603 872
175 342 708
176 317 747
177 579 988
178 329 555
179 361 731
180 37 706
181 394 558
182 154 745
183 324 703
184 370 912
185 727 900
186 150 702
187 383 694
188 151 679
189 149 654
190 144 638
191 269 635
192 212 842
193 217 644
194 250 597
195 835 953
196 620 949
197 324 910
198 344 793
199 176 922
200 370 746
201 204 682
202 262 830
203 328 484
204 385 931
205 706 957
206 201 655
207 300 737
208 379 791
209 728 720
210 296 858
211 154 613
212 663 942
213 135 908
214 805 910
215 646 872
216 113 692
217 349 554
218 290 737
219 430 668
220 588 977
221 236 656
222 370 871
223 286 727
224 89 671
225 136 667
226 195 761
227 188 705
228 377 846
229 375 728
230 269 763
231 235 694
232 452 826
233 281 909
234 215 585
235 325 707
236 419 817
237 392 704
238 152 544
239 136 580
240 643 996
241 198 731
242 155 556
243 345 859
244 99 666
245 519 722
246 168 757
247 295 824
248 676 800
249 229 686
250 772 941
251 294 729
252 637 926
253 464 795
254 346 681
255 327 758
256 665 965
257 98 690
258 852 860
259 770 889
260 124 598
261 235 831
262 680 969
263 323 800
264 525 931
265 120 772
266 839 978
267 214 652
268 660 965
269 297 626
270 236 738
271 148 850
272 138 699
273 336 773
274 605 738
275 190 648
276 119 620
277 198 853
278 288 514
279 888 888
280 165 542
281 682 934
282 794 844
283 759 985
284 416 819
285 724 966
286 403 812
287 270 789
288 482 818
289 69 537
290 734 946
291 292 679
292 346 556
293 644 943
294 681 943
295 323 765
296 514 782
297 141 713
298 624 870
299 625 952
300 356 923
301 356 576
302 328 801
303 185 648
304 287 633
305 689 956
306 645 958
307 137 895
308 299 975
309 448 752
310 348 642
311 151 631
312 675 910
313 245 776
314 434 705
315 283 804
316 889 924
317 187 781
318 486 662
319 350 844
320 519 720
321 720 924
322 259 800
323 514 712
324 443 521
325 421 818
326 174 765
327 750 969
328 481 831
329 281 600
330 141 959
331 299 730
332 320 840
333 341 651
334 365 730
335 789 953
336 680 906
337 145 740
338 304 810
339 290 741
340 467 973
341 600 980
342 288 613
343 309 761
344 153 907
345 307 834
346 335 809
347 989 940
348 176 655
349 759 975
350 345 821
351 658 971
352 749 841
353 380 754
354 316 640
355 177 803
356 133 650
357 254 803
358 311 838
359 293 782
360 493 855
361 704 715
362 102 745
363 226 806
364 147 600
365 437 837
366 262 671
367 152 706
368 310 738
369 146 594
370 864 905
371 271 792
372 317 845
373 607 724
374 407 563
375 469 986
376 693 918
377 235 641
378 405 833
379 617 890
380 508 893
381 361 822
382 712 984
383 577 895
384 225 550
385 171 397
386 391 780
387 418 845
388 155 768
389 135 553
390 381 894
391 383 713
392 631 842
393 313 899
394 777 738
395 289 831
396 699 923
397 323 706
398 309 774
399 232 689
400 232 654
401 540 966
402 373 830
403 137 742
404 205 693
405 178 829
406 203 663
407 354 767
408 212 657
409 370 890
410 300 820
411 142 643
412 274 816
413 358 665
414 330 387
415 152 815
416 522 768
417 232 688
418 179 630
419 359 620
420 276 725
421 269 741
422 300 881
423 234 495
424 848 971
425 141 576
426 158 722
427 140 687
428 293 767
429 250 870
430 571 769
431 162 708
432 236 891
433 142 766
434 470 860
435 409 941
436 293 643
437 219 907
438 438 500
439 381 689
440 186 778
441 298 706
442 149 681
443 745 731
444 314 700
445 252 792
446 218 889
447 286 867
448 331 662
449 817 976
450 210 767
451 60 635
452 290 814
453 356 864
454 377 751
455 759 947
456 209 914
457 348 823
458 600 940
459 283 741
460 219 943
461 334 754
462 146 701
463 245 914
464 333 697
465 700 975
466 354 815
467 281 903
468 393 876
469 313 794
470 116 629
471 350 746
472 457 836
473 360 833
474 723 793
475 322 922
476 373 835
477 182 725
478 612 984
479 276 788
480 337 871
481 157 712
482 180 718
483 110 751
484 478 864
485 198 713
486 97 782
487 245 799
488 366 753
489 705 860
490 251 740
491 331 736
492 678 955
493 357 819
494 170 770
495 310 710
496 138 651
497 157 698
498 299 520
499 253 784
500 314 735
501 238 903
502 753 794
503 116 779
504 25 788
505 115 837
506 191 605
507 39 803
508 269 809
509 333 845
510 103 581
511 390 849
512 678 973
513 368 739
514 218 733
515 698 973
516 742 935
517 338 814
518 272 632
519 96 621
520 200 778
521 741 911
522 728 990
523 374 755
524 628 922
525 713 842
526 426 574
527 243 643
528 736 891
529 379 850
530 348 845
531 370 701
532 281 761
533 121 730
534 189 703
535 405 747
536 722 827
537 380 638
538 192 679
539 323 680
540 194 723
541 675 994
542 391 872
543 754 984
544 319 838
545 289 917
546 466 764
547 409 807
548 302 908
549 140 817
550 303 803
551 479 913
552 42 548
553 349 834
554 702 995
555 686 901
556 379 698
557 659 924
558 362 867
559 290 701
560 157 702
561 289 978
562 239 744
563 312 820
564 742 986
565 195 565
566 339 789
567 191 700
568 341 972
569 259 794
570 200 725
571 219 685
572 378 793
573 329 846
574 326 617
575 640 793
576 317 866
577 279 817
578 942 960
579 369 728
580 688 978
581 190 881
582 136 608
583 184 611
584 85 689
585 507 533
586 326 860
587 279 803
588 688 984
589 653 911
590 360 747
591 319 744
592 390 741
593 252 873
594 657 981
595 104 721
596 363 911
597 154 695
598 667 910
599 185 714
600 896 805
601 73 709
602 324 725
603 258 810
604 233 734
605 794 896
606 267 664
607 84 667
608 692 953
609 299 858
610 193 780
611 647 844
612 427 680
613 227 914
614 57 738
615 708 994
616 249 792
617 283 655
618 146 694
619 263 686
620 105 706
621 241 837
622 312 704
623 199 748
624 370 882
625 227 644
626 331 670
627 295 836
628 59 723
629 201 647
630 662 737
631 249 655
632 183 835
633 343 587
634 285 816
635 770 930
636 354 804
637 331 901
638 817 995
639 172 670
640 397 950
641 317 783
642 391 900
643 309 797
644 324 959
645 437 695
646 77 613
647 361 894
648 721 986
649 272 770
650 688 871
651 708 917
652 380 847
653 359 931
654 83 847
655 185 712
PICKUP_AND_DELIVERY_SECTION
1 0 0 1000000000 0 0 0
2 0 0 1000000000 0 0.4363 0.5637
3 0 0 1000000000 0 0.7164 0.2836
4 0 0 1000000000 0 0.2568 0.7432
5 0 0 1000000000 0 0.361 0.639
6 0 0 1000000000 0 0.1991 0.8009
7 0 0 1000000000 0 0.7341 0.2659
8 0 0 1000000000 0 0.5031 0.4969
9 0 0 1000000000 0 0.2174 0.7826
10 0 0 1000000000 0 0.9076 0.09237
11 0 0 1000000000 0 0.8733 0.1267
12 0 0 1000000000 0 0.3488 0.6512
13 0 0 1000000000 0 0.263 0.737
14 0 0 1000000000 0 0.1487 0.8513
15 0 0 1000000000 0 0.3756 0.6244
16 0 0 1000000000 0 0.185 0.815
17 0 0 1000000000 0 0.8948 0.1052
18 0 0 1000000000 0 0.345 0.655
19 0 0 1000000000 0 0.3524 0.6476
20 0 0 1000000000 0 0.578 0.422
21 0 0 1000000000 0 0.1733 0.8267
22 0 0 1000000000 0 0.328 0.672
23 0 0 1000000000 0 0.2305 0.7695
24 0 0 1000000000 0 0.5 0.5
25 0 0 1000000000 0 0.2304 0.7696
26 0 0 1000000000 0 0.4596 0.5404
27 0 0 1000000000 0 0.4261 0.5739
28 0 0 1000000000 0 0.6891 0.3109
29 0 0 1000000000 0 0.263 0.737
30 0 0 1000000000 0 0.7825 0.2175
31 0 0 1000000000 0 0.2189 0.7811
32 0 0 1000000000 0 0.7264 0.2736
33 0 0 1000000000 0 0.2099 0.7901
34 0 0 1000000000 0 0.4113 0.5887
35 0 0 1000000000 0 0.5911 0.4089
36 0 0 1000000000 0 0.6411 0.3589
37 0 0 1000000000 0 0.3561 0.6439
38 0 0 1000000000 0 0.03054 0.9695
39 0 0 1000000000 0 0.3082 0.6918
40 0 0 1000000000 0 0.822 0.178
41 0 0 1000000000 0 0.5455 0.4545
42 0 0 1000000000 0 0.5811 0.4189
43 0 0 1000000000 0 0.7769 0.2231
44 0 0 1000000000 0 0.2493 0.7507
45 0 0 1000000000 0 0.5687 0.4313
46 0 0 1000000000 0 0.5158 0.4842
47 0 0 1000000000 0 0.2528 0.7472
48 0 0 1000000000 0 0.3892 0.6108
49 0 0 1000000000 0 0.7147 0.2853
50 0 0 1000000000 0 0.717 0.283
51 0 0 1000000000 0 0.343 0.657
52 0 0 1000000000 0 0.1847 0.8153
53 0 0 1000000000 0 0.1783 0.8217
54 0 0 1000000000 0 0.4583 0.5417
55 0 0 1000000000 0 0.7402 0.2598
56 0 0 1000000000 0 0.441 0.559
57 0 0 1000000000 0 0.3173 0.6827
58 0 0 1000000000 0 0.2975 0.7025
59 0 0 1000000000 0 0.4323 0.5677
60 0 0 1000000000 0 0.7782 0.2218
61 0 0 1000000000 0 0.2465 0.7535
62 0 0 1000000000 0 0.3208 0.6792
63 0 0 1000000000 0 0.5386 0.4614
64 0 0 1000000000 0 0.7902 0.2098
65 0 0 1000000000 0 0.7902 0.2098
66 0 0 1000000000 0 0.1991 0.8009
67 0 0 1000000000 0 0.4333 0.5667
68 0 0 1000000000 0 0.5393 0.4607
69 0 0 1000000000 0 0.1073 0.8927
70 0 0 1000000000 0 0.8801 0.1199
71 0 0 1000000000 0 0.4809 0.5191
72 0 0 1000000000 0 0.856 0.144
73 0 0 1000000000 0 0.1616 0.8384
74 0 0 1000000000 0 0.5784 0.4216
75 0 0 1000000000 0 0.4324 0.5676
76 0 0 1000000000 0 0.5185 0.4815
77 0 0 1000000000 0 0.4012 0.5988
78 0 0 1000000000 0 0.6939 0.3061
79 0 0 1000000000 0 0.6154 0.3846
80 0 0 1000000000 0 0.7275 0.2725
81 0 0 1000000000 0 0.3456 0.6544
82 0 0 1000000000 0 0.4387 0.5613
83 0 0 1000000000 0 0.5119 0.4881
84 0 0 1000000000 0 0.9942 0.00585
85 0 0 1000000000 0 0.3441 0.6559
86 0 0 1000000000 0 0.4124 0.5876
87 0 0 1000000000 0 0.4215 0.5785
88 0 0 1000000000 0 0.4007 0.5993
89 0 0 1000000000 0 0.8256 0.1744
90 0 0 1000000000 0 0.3817 0.6183
91 0 0 1000000000 0 0.5407 0.4593
92 0 0 1000000000 0 0.3978 0.6022
93 0 0 1000000000 0 0.2647 0.7353
94 0 0 1000000000 0 0.06821 0.9318
95 0 0 1000000000 0 0.2232 0.7768
96 0 0 1000000000 0 0.6241 0.3759
97 0 0 1000000000 0 0.3362 0.6638
98 0 0 1000000000 0 0.2746 0.7254
99 0 0 1000000000 0 0.1902 0.8098
100 0 0 1000000000 0 0.4877 0.5123
101 0 0 1000000000 0 0.2241 0.7759
102 0 0 1000000000 0 0.5207 0.4793
103 0 0 1000000000 0 0.7023 0.2977
104 0 0 1000000000 0 0.3574 0.6426
105 0 0 1000000000 0 0.3843 0.6157
106 0 0 1000000000 0 0.7544 0.2456
107 0 0 1000000000 0 0.2605 0.7395
108 0 0 1000000000 0 0.5082 0.4918
109 0 0 1000000000 0 0.3435 0.6565
110 0 0 1000000000 0 0.3242 0.6758
111 0 0 1000000000 0 0.3423 0.6577
112 0 0 1000000000 0 0.1977 0.8023
113 0 0 1000000000 0 0.3949 0.6051
114 0 0 1000000000 0 0.7417 0.2583
115 0 0 1000000000 0 0.7874 0.2126
116 0 0 1000000000 0 0.2184 0.7816
117 0 0 1000000000 0 0.3255 0.6745
118 0 0 1000000000 0 0.2689 0.7311
119 0 0 1000000000 0 0.1812 0.8187
120 0 0 1000000000 0 0.7698 0.2302
121 0 0 1000000000 0 0.1071 0.8929
122 0 0 1000000000 0 0.8 0.2
123 0 0 1000000000 0 0.7148 0.2852
124 0 0 1000000000 0 0.4532 0.5468
125 0 0 1000000000 0 0.8095 0.1905
126 0 0 1000000000 0 0.344 0.656
127 0 0 1000000000 0 0.7197 0.2803
128 0 0 1000000000 0 0.5155 0.4845
129 0 0 1000000000 0 0.3866 0.6134
130 0 0 1000000000 0 0.199 0.801
131 0 0 1000000000 0 0.3973 0.6027
132 0 0 1000000000 0 0.5745 0.4255
133 0 0 1000000000 0 0.4567 0.5433
134 0 0 1000000000 0 0.1098 0.8902
135 0 0 1000000000 0 0.5357 0.4643
136 0 0 1000000000 0 0.195 0.805
137 0 0 1000000000 0 0.4721 0.5279
138 0 0 1000000000 0 0.9922 0.00778
139 0 0 1000000000 0 0.2171 0.7829
140 0 0 1000000000 0 0.5429 0.4571
141 0 0 1000000000 0 0.4932 0.5068
142 0 0 1000000000 0 0.2655 0.7345
143 0 0 1000000000 0 0.7808 0.2192
144 0 0 1000000000 0 0.3186 0.6814
145 0 0 1000000000 0 0.7796 0.2204
146 0 0 1000000000 0 0.2268 0.7732
147 0 0 1000000000 0 0.8994 0.1006
148 0 0 1000000000 0 0.7741 0.2259
149 0 0 1000000000 0 0.2266 0.7734
150 0 0 1000000000 0 0.5859 0.4141
151 0 0 1000000000 0 0.6828 0.3172
152 0 0 1000000000 0 0.4924 0.5076
153 0 0 1000000000 0 0.3801 0.6199
154 0 0 1000000000 0 0.438 0.562
155 0 0 1000000000 0 0.1474 0.8526
156 0 0 1000000000 0 0.252 0.748
157 0 0 1000000000 0 0.5897 0.4103
158 0 0 1000000000 0 0.2666 0.7334
159 0 0 1000000000 0 0.6124 0.3876
160 0 0 1000000000 0 0.3997 0.6003
161 0 0 1000000000 0 0.4298 0.5702
162 0 0 1000000000 0 0.1571 0.8429
163 0 0 1000000000 0 0.2681 0.7319
164 0 0 1000000000 0 0.1451 0.8549
165 0 0 1000000000 0 0.6011 0.3989
166 0 0 1000000000 0 0.4401 0.5599
167 0 0 1000000000 0 0.4193 0.5807
168 0 0 1000000000 0 0.3672 0.6328
169 0 0 1000000000 0 0.431 0.569
170 0 0 1000000000 0 0.1108 0.8892
171 0 0 1000000000 0 0.2295 0.7705
172 0 0 1000000000 0 0.2095 0.7905
173 0 0 1000000000 0 0.8801 0.1199
174 0 0 1000000000 0 0.6915 0.3085
175 0 0 1000000000 0 0.4831 0.5169
176 0 0 1000000000 0 0.4244 0.5756
177 0 0 1000000000 0 0.586 0.414
178 0 0 1000000000 0 0.5928 0.4072
179 0 0 1000000000 0 0.4938 0.5062
180 0 0 1000000000 0 0.05241 0.9476
181 0 0 1000000000 0 0.7061 0.2939
182 0 0 1000000000 0 0.2067 0.7933
183 0 0 1000000000 0 0.4609 0.5391
184 0 0 1000000000 0 0.4057 0.5943
185 0 0 1000000000 0 0.8078 0.1922
186 0 0 1000000000 0 0.2137 0.7863
187 0 0 1000000000 0 0.5519 0.4481
188 0 0 1000000000 0 0.2224 0.7776
189 0 0 1000000000 0 0.2278 0.7722
190 0 0 1000000000 0 0.2257 0.7743
191 0 0 1000000000 0 0.4236 0.5764
192 0 0 1000000000 0 0.2518 0.7482
193 0 0 1000000000 0 0.337 0.663
194 0 0 1000000000 0 0.4188 0.5812
195 0 0 1000000000 0 0.8762 0.1238
196 0 0 1000000000 0 0.6533 0.3467
197 0 0 1000000000 0 0.356 0.644
198 0 0 1000000000 0 0.4338 0.5662
199 0 0 1000000000 0 0.1909 0.8091
200 0 0 1000000000 0 0.496 0.504
201 0 0 1000000000 0 0.2991 0.7009
202 0 0 1000000000 0 0.3157 0.6843
203 0 0 1000000000 0 0.6777 0.3223
204 0 0 1000000000 0 0.4135 0.5865
205 0 0 1000000000 0 0.7377 0.2623
206 0 0 1000000000 0 0.3069 0.6931
207 0 0 1000000000 0 0.4071 0.5929
208 0 0 1000000000 0 0.4791 0.5209
209 0 0 1000000000 0 0.989 0.01099
210 0 0 1000000000 0 0.345 0.655
211 0 0 1000000000 0 0.2512 0.7488
212 0 0 1000000000 0 0.7038 0.2962
213 0 0 1000000000 0 0.1487 0.8513
214 0 0 1000000000 0 0.8846 0.1154
215 0 0 1000000000 0 0.7408 0.2592
216 0 0 1000000000 0 0.1633 0.8367
217 0 0 1000000000 0 0.63 0.37
218 0 0 1000000000 0 0.3935 0.6065
219 0 0 1000000000 0 0.6437 0.3563
220 0 0 1000000000 0 0.6018 0.3982
221 0 0 1000000000 0 0.3598 0.6402
222 0 0 1000000000 0 0.4248 0.5752
223 0 0 1000000000 0 0.3934 0.6066
224 0 0 1000000000 0 0.1326 0.8674
225 0 0 1000000000 0 0.2039 0.7961
226 0 0 1000000000 0 0.2562 0.7438
227 0 0 1000000000 0 0.2667 0.7333
228 0 0 1000000000 0 0.4456 0.5544
229 0 0 1000000000 0 0.5151 0.4849
230 0 0 1000000000 0 0.3526 0.6474
231 0 0 1000000000 0 0.3386 0.6614
232 0 0 1000000000 0 0.5472 0.4528
233 0 0 1000000000 0 0.3091 0.6909
234 0 0 1000000000 0 0.3675 0.6325
235 0 0 1000000000 0 0.4597 0.5403
236 0 0 1000000000 0 0.5129 0.4871
237 0 0 1000000000 0 0.5568 0.4432
238 0 0 1000000000 0 0.2794 0.7206
239 0 0 1000000000 0 0.2345 0.7655
240 0 0 1000000000 0 0.6456 0.3544
241 0 0 1000000000 0 0.2709 0.7291
242 0 0 1000000000 0 0.2788 0.7212
243 0 0 1000000000 0 0.4016 0.5984
244 0 0 1000000000 0 0.1486 0.8514
245 0 0 1000000000 0 0.7188 0.2812
246 0 0 1000000000 0 0.2219 0.7781
247 0 0 1000000000 0 0.358 0.642
248 0 0 1000000000 0 0.845 0.155
249 0 0 1000000000 0 0.3338 0.6662
250 0 0 1000000000 0 0.8204 0.1796
251 0 0 1000000000 0 0.4033 0.5967
252 0 0 1000000000 0 0.6879 0.3121
253 0 0 1000000000 0 0.5836 0.4164
254 0 0 1000000000 0 0.5081 0.4919
255 0 0 1000000000 0 0.4314 0.5686
256 0 0 1000000000 0 0.6891 0.3109
257 0 0 1000000000 0 0.142 0.858
258 0 0 1000000000 0 0.9907 0.0093
259 0 0 1000000000 0 0.8661 0.1339
260 0 0 1000000000 0 0.2074 0.7926
261 0 0 1000000000 0 0.2828 0.7172
262 0 0 1000000000 0 0.7018 0.2982
263 0 0 1000000000 0 0.4037 0.5962
264 0 0 1000000000 0 0.5639 0.4361
265 0 0 1000000000 0 0.1554 0.8446
266 0 0 1000000000 0 0.8579 0.1421
267 0 0 1000000000 0 0.3282 0.6718
268 0 0 1000000000 0 0.6839 0.3161
269 0 0 1000000000 0 0.4744 0.5256
270 0 0 1000000000 0 0.3198 0.6802
271 0 0 1000000000 0 0.1741 0.8259
272 0 0 1000000000 0 0.1974 0.8026
273 0 0 1000000000 0 0.4347 0.5653
274 0 0 1000000000 0 0.8198 0.1802
275 0 0 1000000000 0 0.2932 0.7068
276 0 0 1000000000 0 0.1919 0.8081
277 0 0 1000000000 0 0.2321 0.7679
278 0 0 1000000000 0 0.5603 0.4397
279 0 0 1000000000 0 1 0
280 0 0 1000000000 0 0.3044 0.6956
281 0 0 1000000000 0 0.7302 0.2698
282 0 0 1000000000 0 0.9408 0.05924
283 0 0 1000000000 0 0.7706 0.2294
284 0 0 1000000000 0 0.5079 0.4921
285 0 0 1000000000 0 0.7495 0.2505
286 0 0 1000000000 0 0.4963 0.5037
287 0 0 1000000000 0 0.3422 0.6578
288 0 0 1000000000 0 0.5892 0.4108
289 0 0 1000000000 0 0.1285 0.8715
290 0 0 1000000000 0 0.7759 0.2241
291 0 0 1000000000 0 0.43 0.57
292 0 0 1000000000 0 0.6223 0.3777
293 0 0 1000000000 0 0.6829 0.3171
294 0 0 1000000000 0 0.7222 0.2778
295 0 0 1000000000 0 0.4222 0.5778
296 0 0 1000000000 0 0.6573 0.3427
297 0 0 1000000000 0 0.1978 0.8022
298 0 0 1000000000 0 0.7172 0.2828
299 0 0 1000000000 0 0.6565 0.3435
300 0 0 1000000000 0 0.3857 0.6143
301 0 0 1000000000 0 0.6181 0.3819
302 0 0 1000000000 0 0.4095 0.5905
303 0 0 1000000000 0 0.2855 0.7145
304 0 0 1000000000 0 0.4534 0.5466
305 0 0 1000000000 0 0.7207 0.2793
306 0 0 1000000000 0 0.6733 0.3267
307 0 0 1000000000 0 0.1531 0.8469
308 0 0 1000000000 0 0.3067 0.6933
309 0 0 1000000000 0 0.5957 0.4043
310 0 0 1000000000 0 0.5421 0.4579
311 0 0 1000000000 0 0.2393 0.7607
312 0 0 1000000000 0 0.7418 0.2582
313 0 0 1000000000 0 0.3157 0.6843
314 0 0 1000000000 0 0.6156 0.3844
315 0 0 1000000000 0 0.352 0.648
316 0 0 1000000000 0 0.9621 0.03788
317 0 0 1000000000 0 0.2394 0.7606
318 0 0 1000000000 0 0.7341 0.2659
319 0 0 1000000000 0 0.4147 0.5853
320 0 0 1000000000 0 0.7208 0.2792
321 0 0 1000000000 0 0.7792 0.2208
322 0 0 1000000000 0 0.3237 0.6763
323 0 0 1000000000 0 0.7219 0.2781
324 0 0 1000000000 0 0.8503 0.1497
325 0 0 1000000000 0 0.5147 0.4853
326 0 0 1000000000 0 0.2275 0.7725
327 0 0 1000000000 0 0.774 0.226
328 0 0 1000000000 0 0.5788 0.4212
329 0 0 1000000000 0 0.4683 0.5317
330 0 0 1000000000 0 0.147 0.853
331 0 0 1000000000 0 0.4096 0.5904
332 0 0 1000000000 0 0.381 0.619
333 0 0 1000000000 0 0.5238 0.4762
334 0 0 1000000000 0 0.5 0.5
335 0 0 1000000000 0 0.8279 0.1721
336 0 0 1000000000 0 0.7506 0.2494
337 0 0 1000000000 0 0.1959 0.8041
338 0 0 1000000000 0 0.3753 0.6247
339 0 0 1000000000 0 0.3914 0.6086
340 0 0 1000000000 0 0.48 0.52
341 0 0 1000000000 0 0.6122 0.3878
342 0 0 1000000000 0 0.4698 0.5302
343 0 0 1000000000 0 0.406 0.594
344 0 0 1000000000 0 0.1687 0.8313
345 0 0 1000000000 0 0.3681 0.6319
346 0 0 1000000000 0 0.4141 0.5859
347 0 0 1000000000 0 0.9505 0.04954
348 0 0 1000000000 0 0.2687 0.7313
349 0 0 1000000000 0 0.7785 0.2215
350 0 0 1000000000 0 0.4202 0.5798
351 0 0 1000000000 0 0.6777 0.3223
352 0 0 1000000000 0 0.8906 0.1094
353 0 0 1000000000 0 0.504 0.496
354 0 0 1000000000 0 0.4938 0.5062
355 0 0 1000000000 0 0.2204 0.7796
356 0 0 1000000000 0 0.2046 0.7954
357 0 0 1000000000 0 0.3163 0.6837
358 0 0 1000000000 0 0.3711 0.6289
359 0 0 1000000000 0 0.3747 0.6253
360 0 0 1000000000 0 0.5766 0.4234
361 0 0 1000000000 0 0.9846 0.01538
362 0 0 1000000000 0 0.1369 0.8631
363 0 0 1000000000 0 0.2804 0.7196
364 0 0 1000000000 0 0.245 0.755
365 0 0 1000000000 0 0.5221 0.4779
366 0 0 1000000000 0 0.3905 0.6095
367 0 0 1000000000 0 0.2153 0.7847
368 0 0 1000000000 0 0.4201 0.5799
369 0 0 1000000000 0 0.2458 0.7542
370 0 0 1000000000 0 0.9547 0.0453
371 0 0 1000000000 0 0.3422 0.6578
372 0 0 1000000000 0 0.3751 0.6249
373 0 0 1000000000 0 0.8384 0.1616
374 0 0 1000000000 0 0.7229 0.2771
375 0 0 1000000000 0 0.4757 0.5243
376 0 0 1000000000 0 0.7549 0.2451
377 0 0 1000000000 0 0.3666 0.6334
378 0 0 1000000000 0 0.4862 0.5138
379 0 0 1000000000 0 0.6933 0.3067
380 0 0 1000000000 0 0.5689 0.4311
381 0 0 1000000000 0 0.4392 0.5608
382 0 0 1000000000 0 0.7236 0.2764
383 0 0 1000000000 0 0.6447 0.3553
384 0 0 1000000000 0 0.4091 0.5909
385 0 0 1000000000 0 0.4307 0.5693
386 0 0 1000000000 0 0.5013 0.4987
387 0 0 1000000000 0 0.4947 0.5053
388 0 0 1000000000 0 0.2018 0.7982
389 0 0 1000000000 0 0.2441 0.7559
390 0 0 1000000000 0 0.4262 0.5738
391 0 0 1000000000 0 0.5372 0.4628
392 0 0 1000000000 0 0.7494 0.2506
393 0 0 1000000000 0 0.3482 0.6518
394 0 0 1000000000 0 0.9498 0.05019
395 0 0 1000000000 0 0.3478 0.6522
396 0 0 1000000000 0 0.7573 0.2427
397 0 0 1000000000 0 0.4575 0.5425
398 0 0 1000000000 0 0.3992 0.6008
399 0 0 1000000000 0 0.3367 0.6633
400 0 0 1000000000 0 0.3547 0.6453
401 0 0 1000000000 0 0.559 0.441
402 0 0 1000000000 0 0.4494 0.5506
403 0 0 1000000000 0 0.1846 0.8154
404 0 0 1000000000 0 0.2958 0.7042
405 0 0 1000000000 0 0.2147 0.7853
406 0 0 1000000000 0 0.3062 0.6938
407 0 0 1000000000 0 0.4615 0.5385
408 0 0 1000000000 0 0.3227 0.6773
409 0 0 1000000000 0 0.4157 0.5843
410 0 0 1000000000 0 0.3659 0.6341
411 0 0 1000000000 0 0.2208 0.7792
412 0 0 1000000000 0 0.3358 0.6642
413 0 0 1000000000 0 0.5383 0.4617
414 0 0 1000000000 0 0.8527 0.1473
415 0 0 1000000000 0 0.1865 0.8135
416 0 0 1000000000 0 0.6797 0.3203
417 0 0 1000000000 0 0.3372 0.6628
418 0 0 1000000000 0 0.2841 0.7159
419 0 0 1000000000 0 0.579 0.421
420 0 0 1000000000 0 0.3807 0.6193
421 0 0 1000000000 0 0.363 0.637
422 0 0 1000000000 0 0.3405 0.6595
423 0 0 1000000000 0 0.4727 0.5273
424 0 0 1000000000 0 0.8733 0.1267
425 0 0 1000000000 0 0.2448 0.7552
426 0 0 1000000000 0 0.2188 0.7812
427 0 0 1000000000 0 0.2038 0.7962
428 0 0 1000000000 0 0.382 0.618
429 0 0 1000000000 0 0.2874 0.7126
430 0 0 1000000000 0 0.7425 0.2575
431 0 0 1000000000 0 0.2288 0.7712
432 0 0 1000000000 0 0.2649 0.7351
433 0 0 1000000000 0 0.1854 0.8146
434 0 0 1000000000 0 0.5465 0.4535
435 0 0 1000000000 0 0.4346 0.5654
436 0 0 1000000000 0 0.4557 0.5443
437 0 0 1000000000 0 0.2415 0.7585
438 0 0 1000000000 0 0.876 0.124
439 0 0 1000000000 0 0.553 0.447
440 0 0 1000000000 0 0.2391 0.7609
441 0 0 1000000000 0 0.4221 0.5779
442 0 0 1000000000 0 0.2188 0.7812
443 0 0 1000000000 0 0.9812 0.01879
444 0 0 1000000000 0 0.4486 0.5514
445 0 0 1000000000 0 0.3182 0.6818
446 0 0 1000000000 0 0.2452 0.7548
447 0 0 1000000000 0 0.3299 0.6701
448 0 0 1000000000 0 0.5 0.5
449 0 0 1000000000 0 0.8371 0.1629
450 0 0 1000000000 0 0.2738 0.7262
451 0 0 1000000000 0 0.09449 0.9055
452 0 0 1000000000 0 0.3563 0.6437
453 0 0 1000000000 0 0.412 0.588
454 0 0 1000000000 0 0.502 0.498
455 0 0 1000000000 0 0.8015 0.1985
456 0 0 1000000000 0 0.2287 0.7713
457 0 0 1000000000 0 0.4228 0.5772
458 0 0 1000000000 0 0.6383 0.3617
459 0 0 1000000000 0 0.3819 0.6181
460 0 0 1000000000 0 0.2322 0.7678
461 0 0 1000000000 0 0.443 0.557
462 0 0 1000000000 0 0.2083 0.7917
463 0 0 1000000000 0 0.2681 0.7319
464 0 0 1000000000 0 0.4778 0.5222
465 0 0 1000000000 0 0.7179 0.2821
466 0 0 1000000000 0 0.4344 0.5656
467 0 0 1000000000 0 0.3112 0.6888
468 0 0 1000000000 0 0.4486 0.5514
469 0 0 1000000000 0 0.3942 0.6058
470 0 0 1000000000 0 0.1844 0.8156
471 0 0 1000000000 0 0.4692 0.5308
472 0 0 1000000000 0 0.5467 0.4533
473 0 0 1000000000 0 0.4322 0.5678
474 0 0 1000000000 0 0.9117 0.08827
475 0 0 1000000000 0 0.3492 0.6508
476 0 0 1000000000 0 0.4467 0.5533
477 0 0 1000000000 0 0.251 0.749
478 0 0 1000000000 0 0.622 0.378
479 0 0 1000000000 0 0.3503 0.6497
480 0 0 1000000000 0 0.3869 0.6131
481 0 0 1000000000 0 0.2205 0.7795
482 0 0 1000000000 0 0.2507 0.7493
483 0 0 1000000000 0 0.1465 0.8535
484 0 0 1000000000 0 0.5532 0.4468
485 0 0 1000000000 0 0.2777 0.7223
486 0 0 1000000000 0 0.124 0.876
487 0 0 1000000000 0 0.3066 0.6934
488 0 0 1000000000 0 0.4861 0.5139
489 0 0 1000000000 0 0.8198 0.1802
490 0 0 1000000000 0 0.3392 0.6608
491 0 0 1000000000 0 0.4497 0.5503
492 0 0 1000000000 0 0.7099 0.2901
493 0 0 1000000000 0 0.4359 0.5641
494 0 0 1000000000 0 0.2208 0.7792
495 0 0 1000000000 0 0.4366 0.5634
496 0 0 1000000000 0 0.212 0.788
497 0 0 1000000000 0 0.2249 0.7751
498 0 0 1000000000 0 0.575 0.425
499 0 0 1000000000 0 0.3227 0.6773
500 0 0 1000000000 0 0.4272 0.5728
501 0 0 1000000000 0 0.2636 0.7364
502 0 0 1000000000 0 0.9484 0.05164
503 0 0 1000000000 0 0.1489 0.8511
504 0 0 1000000000 0 0.03173 0.9683
505 0 0 1000000000 0 0.1374 0.8626
506 0 0 1000000000 0 0.3157 0.6843
507 0 0 1000000000 0 0.04857 0.9514
508 0 0 1000000000 0 0.3325 0.6675
509 0 0 1000000000 0 0.3941 0.6059
510 0 0 1000000000 0 0.1773 0.8227
511 0 0 1000000000 0 0.4594 0.5406
512 0 0 1000000000 0 0.6968 0.3032
513 0 0 1000000000 0 0.498 0.502
514 0 0 1000000000 0 0.2974 0.7026
515 0 0 1000000000 0 0.7174 0.2826
516 0 0 1000000000 0 0.7936 0.2064
517 0 0 1000000000 0 0.4152 0.5848
518 0 0 1000000000 0 0.4304 0.5696
519 0 0 1000000000 0 0.1546 0.8454
520 0 0 1000000000 0 0.2571 0.7429
521 0 0 1000000000 0 0.8134 0.1866
522 0 0 1000000000 0 0.7354 0.2646
523 0 0 1000000000 0 0.4954 0.5046
524 0 0 1000000000 0 0.6811 0.3189
525 0 0 1000000000 0 0.8468 0.1532
526 0 0 1000000000 0 0.7422 0.2578
527 0 0 1000000000 0 0.3779 0.6221
528 0 0 1000000000 0 0.826 0.174
529 0 0 1000000000 0 0.4459 0.5541
530 0 0 1000000000 0 0.4118 0.5882
531 0 0 1000000000 0 0.5278 0.4722
532 0 0 1000000000 0 0.3693 0.6307
533 0 0 1000000000 0 0.1658 0.8342
534 0 0 1000000000 0 0.2688 0.7312
535 0 0 1000000000 0 0.5422 0.4578
536 0 0 1000000000 0 0.873 0.127
537 0 0 1000000000 0 0.5956 0.4044
538 0 0 1000000000 0 0.2828 0.7172
539 0 0 1000000000 0 0.475 0.525
540 0 0 1000000000 0 0.2683 0.7317
541 0 0 1000000000 0 0.6791 0.3209
542 0 0 1000000000 0 0.4484 0.5516
543 0 0 1000000000 0 0.7663 0.2337
544 0 0 1000000000 0 0.3807 0.6193
545 0 0 1000000000 0 0.3152 0.6848
546 0 0 1000000000 0 0.6099 0.3901
547 0 0 1000000000 0 0.5068 0.4932
548 0 0 1000000000 0 0.3326 0.6674
549 0 0 1000000000 0 0.1714 0.8286
550 0 0 1000000000 0 0.3773 0.6227
551 0 0 1000000000 0 0.5246 0.4754
552 0 0 1000000000 0 0.07664 0.9234
553 0 0 1000000000 0 0.4185 0.5815
554 0 0 1000000000 0 0.7055 0.2945
555 0 0 1000000000 0 0.7614 0.2386
556 0 0 1000000000 0 0.543 0.457
557 0 0 1000000000 0 0.7132 0.2868
558 0 0 1000000000 0 0.4175 0.5825
559 0 0 1000000000 0 0.4137 0.5863
560 0 0 1000000000 0 0.2236 0.7764
561 0 0 1000000000 0 0.2955 0.7045
562 0 0 1000000000 0 0.3212 0.6788
563 0 0 1000000000 0 0.3805 0.6195
564 0 0 1000000000 0 0.7525 0.2475
565 0 0 1000000000 0 0.3451 0.6549
566 0 0 1000000000 0 0.4297 0.5703
567 0 0 1000000000 0 0.2729 0.7271
568 0 0 1000000000 0 0.3508 0.6492
569 0 0 1000000000 0 0.3262 0.6738
570 0 0 1000000000 0 0.2759 0.7241
571 0 0 1000000000 0 0.3197 0.6803
572 0 0 1000000000 0 0.4767 0.5233
573 0 0 1000000000 0 0.3889 0.6111
574 0 0 1000000000 0 0.5284 0.4716
575 0 0 1000000000 0 0.8071 0.1929
576 0 0 1000000000 0 0.3661 0.6339
577 0 0 1000000000 0 0.3415 0.6585
578 0 0 1000000000 0 0.9812 0.01875
579 0 0 1000000000 0 0.5069 0.4931
580 0 0 1000000000 0 0.7035 0.2965
581 0 0 1000000000 0 0.2157 0.7843
582 0 0 1000000000 0 0.2237 0.7763
583 0 0 1000000000 0 0.3011 0.6989
584 0 0 1000000000 0 0.1234 0.8766
585 0 0 1000000000 0 0.9512 0.04878
586 0 0 1000000000 0 0.3791 0.6209
587 0 0 1000000000 0 0.3474 0.6526
588 0 0 1000000000 0 0.6992 0.3008
589 0 0 1000000000 0 0.7168 0.2832
590 0 0 1000000000 0 0.4819 0.5181
591 0 0 1000000000 0 0.4288 0.5712
592 0 0 1000000000 0 0.5263 0.4737
593 0 0 1000000000 0 0.2887 0.7113
594 0 0 1000000000 0 0.6697 0.3303
595 0 0 1000000000 0 0.1442 0.8558
596 0 0 1000000000 0 0.3985 0.6015
597 0 0 1000000000 0 0.2216 0.7784
598 0 0 1000000000 0 0.733 0.267
599 0 0 1000000000 0 0.2591 0.7409
600 0 0 1000000000 0 0.8984 0.1016
601 0 0 1000000000 0 0.103 0.897
602 0 0 1000000000 0 0.4469 0.5531
603 0 0 1000000000 0 0.3185 0.6815
604 0 0 1000000000 0 0.3174 0.6826
605 0 0 1000000000 0 0.8862 0.1138
606 0 0 1000000000 0 0.4021 0.5979
607 0 0 1000000000 0 0.1259 0.8741
608 0 0 1000000000 0 0.7261 0.2739
609 0 0 1000000000 0 0.3485 0.6515
610 0 0 1000000000 0 0.2474 0.7526
611 0 0 1000000000 0 0.7666 0.2334
612 0 0 1000000000 0 0.6279 0.3721
613 0 0 1000000000 0 0.2484 0.7516
614 0 0 1000000000 0 0.07724 0.9228
615 0 0 1000000000 0 0.7123 0.2877
616 0 0 1000000000 0 0.3144 0.6856
617 0 0 1000000000 0 0.4321 0.5679
618 0 0 1000000000 0 0.2104 0.7896
619 0 0 1000000000 0 0.3834 0.6166
620 0 0 1000000000 0 0.1487 0.8513
621 0 0 1000000000 0 0.2879 0.7121
622 0 0 1000000000 0 0.4432 0.5568
623 0 0 1000000000 0 0.266 0.734
624 0 0 1000000000 0 0.4195 0.5805
625 0 0 1000000000 0 0.3525 0.6475
626 0 0 1000000000 0 0.494 0.506
627 0 0 1000000000 0 0.3529 0.6471
628 0 0 1000000000 0 0.0816 0.9184
629 0 0 1000000000 0 0.3107 0.6893
630 0 0 1000000000 0 0.8982 0.1018
631 0 0 1000000000 0 0.3802 0.6198
632 0 0 1000000000 0 0.2192 0.7808
633 0 0 1000000000 0 0.5843 0.4157
634 0 0 1000000000 0 0.3493 0.6507
635 0 0 1000000000 0 0.828 0.172
636 0 0 1000000000 0 0.4403 0.5597
637 0 0 1000000000 0 0.3674 0.6326
638 0 0 1000000000 0 0.8211 0.1789
639 0 0 1000000000 0 0.2567 0.7433
640 0 0 1000000000 0 0.4179 0.5821
641 0 0 1000000000 0 0.4049 0.5951
642 0 0 1000000000 0 0.4344 0.5656
643 0 0 1000000000 0 0.3877 0.6123
644 0 0 1000000000 0 0.3379 0.6621
645 0 0 1000000000 0 0.6288 0.3712
646 0 0 1000000000 0 0.1256 0.8744
647 0 0 1000000000 0 0.4038 0.5962
648 0 0 1000000000 0 0.7312 0.2688
649 0 0 1000000000 0 0.3532 0.6468
650 0 0 1000000000 0 0.7899 0.2101
651 0 0 1000000000 0 0.7721 0.2279
652 0 0 1000000000 0 0.4486 0.5514
653 0 0 1000000000 0 0.3856 0.6144
654 0 0 1000000000 0 0.09799 0.902
655 0 0 1000000000 0 0.2598 0.7402
